CMD:
./solvers/bin/cadical --plain --no-reduce -t 1600 ./data/cnfs//zipcpu-zipmmu-p31/zipcpu-zipmmu-p31.85.cnf

c --- [ banner ] -------------------------------------------------------------
c 
c CaDiCaL SAT Solver
c Copyright (c) 2016-2024
c A. Biere, M. Fleury, N. Froleyks, K. Fazekas, F. Pollitt, T. Faller
c JKU Linz, University of Freiburg, TU Wien
c 
c Version 2.1.3 5296d3d2a9bf48c154ab2acb5e44625776d821bf
c g++ (Gentoo 12.3.1_p20230526 p2) 12.3.1 20230526 -Wall -Wextra -O3 -DNDEBUG
c Sat Aug 9 07:26:21 PDT 2025 Linux cedar2.int.cedar.computecanada.ca 5.14.0-362.24.2.el9_3.x86_64 x86_64
c 
c --- [ limit ] --------------------------------------------------------------
c 
c setting time limit to 1600 seconds real time (due to '-t 1600')
c 
c --- [ parsing input ] ------------------------------------------------------
c 
c reading DIMACS file from './data/cnfs//zipcpu-zipmmu-p31/zipcpu-zipmmu-p31.85.cnf'
c opening file to read './data/cnfs//zipcpu-zipmmu-p31/zipcpu-zipmmu-p31.85.cnf'
c found 'p cnf 408124 1196369' header
c parsed 1196369 clauses in 0.23 seconds process time
c 
c --- [ options ] ------------------------------------------------------------
c 
c   --compact=false                (different from default 'true')
c   --decompose=false              (different from default 'true')
c   --deduplicate=false            (different from default 'true')
c   --elim=false                   (different from default 'true')
c   --probe=false                  (different from default 'true')
c   --reduce=false                 (different from default 'true')
c   --subsume=false                (different from default 'true')
c   --ternary=false                (different from default 'true')
c   --transred=false               (different from default 'true')
c   --vivify=false                 (different from default 'true')
c 
c --- [ solving ] ------------------------------------------------------------
c 
c time measured in process time since initialization
c 
c  seconds   reductions  redundant   irredundant
c          MB    restarts       trail        variables
c           level   conflicts       glue           remaining
c 
c *  0.23 187  0 0   0    0    0  0% 0 1183459 399719 98%
c {  0.34 193  0 0   0    0    0  0% 0 1183459 399719 98%
c i  0.34 193 41 0   0    2    1  2% 0 1183459 399718 98%
c i  0.34 193 43 0   7  140  122  3% 4 1183459 399711 98%
c i  0.39 194 39 0  24  318  295  4% 4 1183459 399703 98%
c i  0.40 194 57 0  24  350  323  4% 4 1183459 399702 98%
c i  0.40 194 58 0  24  351  323  5% 4 1183459 399701 98%
c i  0.40 194 59 0  24  352  323  5% 4 1183459 399698 98%
c i  0.40 194 59 0  24  353  323  5% 4 1183459 399697 98%
c i  0.40 194 61 0  24  356  325  5% 4 1183459 399689 98%
c i  0.40 195 75 0  24  390  355  5% 4 1183459 399681 98%
c i  0.42 195 105 0  24  485  440  7% 3 1183459 399674 98%
c i  0.46 195 98 0  36  735  657  7% 3 1183459 399668 98%
c }  0.49 195 87 0  48 1001  899  6% 3 1183459 399668 98%
c [  0.49 195  0 0  48 1001  899  0% 0 1183459 399668 98%
c O  0.59 195 7705 0  48 1002  900 96% 1 1183459 399668 98%
c i  0.64 195 7452 0  48 1502 1378 94% 5 1183459 399661 98%
c ]  0.75 195 3813 0  49 3003 2771 49% 8 1183459 399660 98%
c {  0.75 195 87 0  49 3003 2771  6% 3 1183459 399660 98%
c F  0.76 195 87 0  49 3004 2772  6% 3 1183459 399660 98%
c 
c  seconds   reductions  redundant   irredundant
c          MB    restarts       trail        variables
c           level   conflicts       glue           remaining
c 
c i  0.76 195 87 0  49 3015 2782  6% 3 1183459 399645 98%
c i  0.76 195 86 0  52 3040 2804  6% 3 1183459 399639 98%
c i  0.81 196 88 0  66 3284 3017  7% 3 1183459 399632 98%
c i  0.81 196 88 0  68 3291 3023  7% 3 1183459 399630 98%
c i  0.81 196 88 0  68 3292 3023  7% 3 1183459 399614 98%
c i  0.81 196 87 0  73 3309 3038  7% 3 1183459 399605 98%
c i  0.82 196 87 0  73 3312 3039  7% 3 1183459 399594 98%
c i  0.90 196 89 0 103 3727 3421  7% 4 1183459 399586 98%
c i  0.96 196 105 0 116 3874 3556  8% 4 1183459 399585 98%
c i  1.15 196 104 0 185 4451 4093  8% 4 1183459 399539 98%
c i  1.20 197 89 0 334 5040 4642  7% 4 1183459 399173 98%
c #  1.31 197 95 0 400 6005 5516  8% 4 1183459 398898 98%
c i  1.33 197 94 0 422 6171 5665  8% 4 1183459 398620 98%
c i  1.33 197 94 0 423 6172 5665  8% 4 1183459 398333 98%
c }  1.39 197 87 0 548 7005 6435  8% 4 1183459 398333 98%
c [  1.39 197 3813 0 548 7005 6435 49% 8 1183459 398333 98%
c I  1.87 198 2631 0 550 10007 9203 36% 7 1183459 398333 98%
c ]  2.55 200 2014 0 553 15005 13784 31% 7 1183459 398333 98%
c {  2.55 200 87 0 553 15005 13784  8% 4 1183459 398333 98%
c B  2.56 200 87 0 555 15009 13788  8% 4 1183459 398333 98%
c 
c  seconds   reductions    redundant   irredundant
c          MB    restarts         trail        variables
c           level    conflicts        glue           remaining
c 
c i  2.56 200 87 0 555 15011 13789  8% 4 1183459 398273 98%
c i  2.58 200 86 0 566 15130 13901  8% 4 1183459 398223 98%
c i  2.64 200 89 0 618 15574 14315  8% 4 1183459 398221 98%
c i  2.64 200 89 0 618 15575 14315  8% 4 1183459 398209 98%
c i  2.68 200 90 0 625 15799 14517  8% 4 1183459 398194 98%
c i  2.92 200 89 0 720 16954 15580  8% 4 1183459 398190 98%
c i  3.14 201 86 0 901 18098 16587  8% 4 1183459 397522 97%
c i  3.34 201 85 0 1039 19059 17468  8% 5 1183459 397521 97%
c i  3.44 201 84 0 1148 19598 17969  8% 5 1183459 397520 97%
c i  3.47 201 83 0 1177 19763 18111  8% 5 1183459 397517 97%
c i  3.64 201 82 0 1310 20501 18805  8% 5 1183459 397255 97%
c W  4.17 201 80 0 1421 21011 18933  7% 5 1154718 397255 97%
c i  4.49 201 79 0 1583 22150 19983  7% 5 1154718 397247 97%
c i  4.59 201 79 0 1678 22598 20392  7% 5 1154718 397243 97%
c i  4.81 201 77 0 1861 23740 21446  7% 5 1154718 397242 97%
c F  5.90 201 73 0 2312 28012 25343  7% 5 1154718 397242 97%
c i  6.08 201 71 0 2520 29268 26503  7% 5 1154718 397239 97%
c }  6.31 201 69 0 2730 31007 28092  7% 5 1154718 397239 97%
c [  6.31 201 2014 0 2730 31007 28092 31% 7 1154718 397239 97%
c i  6.66 201 1581 0 2731 34061 30703 27% 8 1154718 397232 97%
c 
c  seconds     reductions     redundant   irredundant
c          MB      restarts          trail        variables
c            level      conflicts        glue           remaining
c 
c B  6.83 201 1365 0 2733 36014 32406 24% 8 1154718 397231 97%
c i  6.91 201 1238 0 2733 37433 33454 22% 8 1154718 397220 97%
c i  6.91 201 1237 0 2733 37445 33460 22% 8 1154718 397171 97%
c i  6.91 201 1227 0 2733 37571 33497 22% 8 1154718 397159 97%
c i  6.91 201 1218 0 2733 37680 33519 22% 8 1154718 397053 97%
c i  6.91 201 1217 0 2733 37691 33523 22% 8 1154718 397031 97%
c ]  6.91 201 1215 0 2734 37716 33529 22% 8 1154718 396961 97%
c 0  6.91 201 1215 0 2734 37716 33529 22% 8 1154718 396961 97%
c 
c --- [ result ] -------------------------------------------------------------
c 
s UNSATISFIABLE
c 
c --- [ run-time profiling ] -------------------------------------------------
c 
c process time taken by individual solving procedures
c (percentage relative to process time for solving)
c 
c         6.69  100.00% search
c         4.11   61.39% unstable
c         2.02   30.17% stable
c         0.46    6.81% walk
c         0.23    3.39% parse
c         0.11    1.63% lucky
c         0.00    0.00% simplify
c   =================================
c         6.69   96.71% solve
c 
c last line shows process time for solving
c (percentage relative to total process time)
c 
c --- [ statistics ] ---------------------------------------------------------
c 
c chronological:             14593        38.69 %  of conflicts
c conflicts:                 37716      5639.84    per second
c decisions:                256859     38409.29    per second
c fixed:                     11068         2.71 %  of all variables
c learned:                   36314        96.28 %  per conflict
c learned_lits:             892522       100.00 %  learned literals
c minimized:                     0         0.00 %  learned literals
c shrunken:                 135623        15.20 %  learned literals
c minishrunken:             171340        19.20 %  learned literals
c otfs:                        201         0.53 %  of conflict
c propagations:           83898659        12.55 M  per second
c rephased:                      8      4714.50    interval
c restarts:                   2734        13.80    interval
c stabilizing:                   3        44.30 %  of conflicts
c subsumed:                   2400         0.20 %  of all clauses
c strengthened:                198         0.02 %  of all clauses
c walked:                        1     37716.00    interval
c 
c seconds are measured in process time for solving
c 
c --- [ resources ] ----------------------------------------------------------
c 
c total process time since initialization:         6.92    seconds
c total real time since initialization:            6.95    seconds
c maximum resident set size of process:          209.12    MB
c 
c --- [ shutting down ] ------------------------------------------------------
c 
c exit 20
